Route #1: 74 88 129 49 145 89 66 14 110 39 41 105 139
Route #2: 1
Route #3: 23 40
Route #4: 9 29
Route #5: 141 5 15 125 60
Route #6: 113 123 136 79 32 35 106 67 150 92 99 86 28 109
Route #7: 24 80 62 101 61
Route #8: 13
Route #9: 27
Route #10: 107 120 78 30 144 47 87 149 111 131 65 147
Route #11: 102 34 42 53 57 36 71 21 83
Route #12: 7 11 143
Route #13: 146 103 20 81 44 54 142 73 37 63 33
Route #14: 76 114 18 97 118 151 43 56
Route #15: 4
Route #16: 3 59 122 51
Route #17: 10
Route #18: 108 46 133 19 116
Route #19: 152 12 126 119 31 140 94
Route #20: 128 135 127 132 96 22 137 100 70 91 72 52
Route #21: 8 90 77 48 85 50 98 148 45 117
Route #22: 130 16 58 69 84
Route #23: 26 112 121
Route #24: 2 55 93 138 68
Route #25: 6 38 75 115
Route #26: 17 134
Route #27: 124 104 64 82 25 95
Cost 25663
